100
13 0
19 0
20 1
41 3
23 0
22 4
19 3
39 4
22 2
43 1
18 3
24 4
16 2
7 3
14 4
12 0
25 4
15 4
33 4
29 3
28 0
14 0
22 3
5 4
40 0
36 3
36 2
1 3
31 0
18 2
34 0
11 0
31 4
43 0
1 2
43 4
41 4
38 3
27 0
13 4
37 2
9 1
33 1
10 4
39 0
28 1
38 4
9 4
37 4
32 1
16 0
0 0
1 4
4 4
7 4
20 3
4 3
25 0
31 2
39 2
27 3
24 3
3 4
21 4
16 1
3 0
30 4
21 3
30 0
15 2
9 0
27 4
2 0
16 3
4 0
42 4
16 4
41 0
10 1
6 4
34 1
15 1
37 0
12 1
3 2
29 0
36 0
40 4
28 2
42 3
2 4
20 0
0 4
32 0
12 3
43 3
7 1
15 0
10 3
1 1

